networks/zoo_118_685/zoo_118_685-lower.txt
Number of groups: 53
Flow 1: {1 34 0} {34 93 0} 
Flow 2: {34 15 0} {15 54 0} {54 113 0} 
Flow 3: {2 5 0} {5 54 0} {54 15 0} {15 34 0} Flow 5: {34 1 0} {1 60 0} 
Flow 5: {3 34 0} Flow 6: {54 5 0} {5 64 0} 
Flow 7: {54 6 0} {6 65 0} 
Flow 8: {54 7 0} {7 66 0} 
Flow 9: {5 8 0} {8 67 0} 
Flow 10: {54 12 0} {12 71 0} 
Flow 11: {15 74 0} 
Flow 12: {15 48 0} {48 19 0} {19 78 0} 
Flow 13: {45 11 0} {11 22 0} {22 21 0} {15 45 0} {21 80 0} 
Flow 14: {22 81 0} 
Flow 15: {36 26 0} {26 85 0} 
Flow 15: {34 36 0} Flow 16: {15 29 0} {29 88 0} 
Flow 17: {34 33 0} {33 31 0} {31 90 0} 
Flow 18: {33 92 0} 
Flow 20: {36 95 0} 
Flow 21: {19 42 0} {42 101 0} 
Flow 22: {34 51 0} {51 110 0} 
Flow 24: {34 55 0} {55 114 0} 
Flow 25: {54 58 0} {58 117 0} 
Flow 26: {4 36 0} {36 54 0} Flow 28: {36 34 0} Flow 35: {5 11 0} {23 9 0} {9 68 0} 
Flow 35: {22 23 0} Flow 36: {11 70 0} 
Flow 39: {15 33 0} {33 18 0} {18 77 0} 
Flow 40: {54 19 0} Flow 43: {54 36 0} {36 25 0} {25 84 0} 
Flow 51: {48 107 0} 
Flow 54: {36 55 0} Flow 56: {6 54 0} Flow 57: {34 3 0} {3 62 0} 
Flow 58: {36 4 0} {4 63 0} 
Flow 62: {54 11 0} Flow 63: {57 10 0} {10 69 0} 
Flow 63: {36 57 0} Flow 67: {36 16 0} {16 75 0} 
Flow 72: {23 82 0} 
Flow 75: {15 27 0} {27 86 0} 
Flow 82: {7 44 0} {44 103 0} 
Flow 83: {11 45 0} {45 104 0} 
Flow 89: {7 54 0} Flow 95: {44 11 0} Flow 122: {8 5 0} Flow 149: {9 23 0} {23 22 0} {22 11 0} {11 5 0} Flow 150: {11 44 0} {44 7 0} Flow 152: {11 54 0} Flow 153: {45 15 0} Flow 154: {22 19 0} Flow 159: {10 57 0} {57 36 0} Flow 184: {31 32 0} {32 91 0} 
Flow 188: {19 40 0} {40 99 0} 
Flow 190: {11 43 0} {43 102 0} 
Flow 198: {12 54 0} Flow 199: {13 21 0} {21 22 0} Flow 200: {14 29 0} {29 15 0} Flow 202: {5 2 0} {2 61 0} 
Flow 213: {29 14 0} {14 73 0} 
Flow 214: {34 16 0} Flow 220: {22 24 0} {24 83 0} 
Flow 224: {54 28 0} {28 87 0} 
Flow 230: {33 35 0} {35 94 0} 
Flow 232: {36 37 0} {37 96 0} 
Flow 233: {36 38 0} {38 97 0} 
Flow 235: {48 41 0} {41 100 0} 
Flow 237: {54 43 0} Flow 240: {48 46 0} {46 105 0} 
Flow 241: {48 47 0} {47 106 0} 
Flow 243: {48 49 0} {49 108 0} 
Flow 244: {36 50 0} {50 109 0} 
Flow 246: {16 52 0} {52 111 0} 
Flow 247: {36 39 0} {39 53 0} {53 112 0} 
Flow 251: {45 59 0} {59 118 0} 
Flow 252: {16 34 0} Flow 253: {16 36 0} Flow 265: {38 58 0} Flow 266: {19 54 0} Flow 273: {19 22 0} Flow 294: {19 48 0} Flow 299: {20 22 0} Flow 388: {24 22 0} Flow 389: {25 36 0} Flow 392: {26 36 0} Flow 406: {27 15 0} Flow 416: {28 54 0} Flow 420: {31 33 0} {33 34 0} Flow 421: {33 15 0} Flow 436: {18 55 0} Flow 438: {32 31 0} Flow 509: {35 33 0} Flow 525: {33 17 0} {17 76 0} 
Flow 526: {55 18 0} Flow 541: {36 35 0} Flow 562: {38 36 0} Flow 565: {39 36 0} Flow 567: {40 19 0} Flow 570: {41 48 0} {48 15 0} Flow 572: {42 19 0} Flow 574: {43 54 0} Flow 575: {43 11 0} Flow 593: {46 48 0} Flow 594: {47 48 0} Flow 598: {49 48 0} Flow 600: {50 36 0} Flow 601: {51 34 0} Flow 611: {52 16 0} Flow 622: {55 34 0} Flow 624: {55 36 0} Flow 640: {18 33 0} Flow 649: {56 15 0} Flow 658: {58 29 0} Flow 659: {58 54 0} Flow 671: {58 38 0} Flow 683: {59 45 0} Time taken running everything: 0 seconds
